100 500 200 500 10 100
23 311
51 257
68 350
12 307
84 291
38 249
60 372
55 432
50 458
67 498
42 362
32 485
71 354
88 260
81 239
75 263
11 438
89 285
42 418
81 202
83 402
88 291
23 449
32 491
72 379
56 201
86 497
74 350
80 281
73 347
94 481
17 370
25 480
81 405
12 296
89 355
88 408
80 469
71 366
81 410
18 344
99 485
67 396
13 338
50 493
59 446
76 344
56 289
78 468
11 469
14 299
28 460
29 217
19 210
27 285
49 378
79 330
82 468
36 445
98 350
77 489
91 358
76 359
60 404
89 339
87 391
67 445
48 343
30 477
93 294
63 272
35 441
41 231
39 325
18 361
61 310
46 219
91 430
50 314
81 205
64 403
85 340
90 444
70 207
97 335
19 483
56 472
17 206
13 228
17 326
90 204
97 487
35 302
63 403
90 447
67 318
28 201
36 395
37 389
80 314
